Running MiniSat on FULL_RUN_MINISAT\62dcbf79f5ecef5618c9d9a00311326c-pcmax-scheduling-m13-1655-9604-UNSAT.sanitized.cnf... 
============================[ Problem Statistics ]=============================
|                                                                             |
|  Number of variables:          1654                                         |
|  Number of clauses:            8801                                         |
|  Parse time:                   0.03 s                                       |
|                                                                             |
============================[ Search Statistics ]==============================
| Conflicts |          ORIGINAL         |          LEARNT          | Progress |
|           |    Vars  Clauses Literals |    Limit  Clauses Lit/Cl |          |
===============================================================================
|       100 |    1464     8058    22447 |     2954       99      3 | 11.487 % |
|       250 |    1464     8058    22447 |     3250      249     11 | 11.487 % |
|       475 |    1463     7991    22283 |     3575      472     21 | 11.548 % |
|       812 |    1463     7991    22283 |     3932      809     32 | 11.548 % |
|      1318 |    1463     7991    22283 |     4325     1315     39 | 11.548 % |
|      2077 |    1463     7991    22283 |     4758     2074     45 | 11.548 % |
|      3216 |    1463     7991    22283 |     5234     3213     50 | 11.548 % |
|      4924 |    1463     7991    22283 |     5757     4921     50 | 11.548 % |
|      7486 |    1463     7991    22283 |     6333     4406     52 | 11.548 % |
|     11330 |    1462     7955    22195 |     6966     4970     49 | 11.608 % |
|     17096 |    1462     7955    22195 |     7663     7088     58 | 11.608 % |
|     25745 |    1462     7955    22195 |     8429     7665     62 | 11.608 % |
|     38719 |    1459     7881    22012 |     9272     7474     48 | 11.790 % |
|     58180 |    1459     7881    22012 |    10200     7713     56 | 11.790 % |
|     87372 |    1459     7881    22012 |    11220    10549     59 | 11.790 % |
|    131161 |    1459     7881    22012 |    12342     7959     62 | 11.790 % |
ERROR: MiniSat process not found for FULL_RUN_MINISAT\6fc528fc3d0fd5a2c50992feb8bf0357-pcmax-scheduling-m24-17855-226744-SAT.sanitized.cnf 
Finished MiniSat on FULL_RUN_MINISAT\6fc528fc3d0fd5a2c50992feb8bf0357-pcmax-scheduling-m24-17855-226744-SAT.sanitized.cnf